2319 1642 1 2 3 7 9 11 14 15 16 17 18 19 20 21 23 24 25 26 28 30 31 34 35 36 37 38 40 41 42 43 44 48 49 50 51 52 53 54 56 58 59 60 61 62 64 65 66 67 68 69 70 71 73 74 75 76 77 78 80 81 82 84 85 86 87 88 89 90 91 93 94 95 96 97 99 100 